NAME: bayg29
TYPE: TSP
COMMENT: 29 Cities in Bavaria, geographical distances (Groetschel,Juenger,Reinelt)
DIMENSION: 6
EDGE_WEIGHT_TYPE: EXPLICIT
EDGE_WEIGHT_FORMAT: UPPER_ROW 
DISPLAY_DATA_TYPE: TWOD_DISPLAY
EDGE_WEIGHT_SECTION
 97 205 139  86  60
129 103  71 105
219 125 175
167 182
 51
DISPLAY_DATA_SECTION
   1    1150.0  1760.0
   2     630.0  1660.0
   3      40.0  2090.0
   4     750.0  1100.0
   5     750.0  2030.0
   6    1030.0  2070.0
EOF
